n = 10; 

m=8; 


5	9	6	28	11	32	8	14	19	10
6	12	7	32	23	28	18	23	21	23
12	62	52	33	78	23	41	89	22	29
24	5	22	17	23	17	7	11	23	22
24	5	22	17	23	17	7	11	23	22
32	32	20	1	21	17	25	16	34	12
32	32	13	14	18	32	3	2	24	12
12	62	52	33	78	23	41	89	22	29











 ];

 
 


 

 
